2 30
654 1025 
0 11 4 22 22 37 40 1
1 29 20 55 55 4 22 2
2 14 22 91 93 54 64 1
3 86 91 45 46 10 94 2
4 26 24 72 75 7 84 1
5 82 82 29 28 12 70 2
6 47 45 76 72 67 5 1
7 31 24 61 62 66 50 1
8 19 17 83 92 1 35 1
9 34 30 69 77 72 6 1
10 42 52 99 98 7 74 2
11 13 7 19 18 6 93 2
12 36 36 85 79 53 63 2
13 28 32 78 79 42 26 1
14 5 9 35 43 13 87 2
15 68 73 92 95 39 28 2
16 67 65 60 52 52 16 2
17 98 92 90 87 84 38 1
18 50 57 79 80 42 11 1
19 16 18 97 93 30 57 2
20 98 89 90 96 68 19 2
21 8 12 78 70 82 31 1
22 38 32 80 83 24 91 2
23 77 71 57 53 64 42 2
24 65 73 82 91 67 94 2
25 36 32 49 47 19 57 2
26 97 94 33 29 8 60 2
27 32 32 71 70 90 53 1
28 55 54 83 76 86 98 2
29 14 19 91 90 60 97 1
